\* EMD *\
Minimize
Sum_of_Transporting_Costs: 7 Route_0_1 + 19.7989898732 Route_0_10
 + 25.2388589282 Route_0_11 + 21 Route_0_12 + 22.1359436212 Route_0_13
 + 25.2388589282 Route_0_14 + 29.6984848098 Route_0_15 + 14 Route_0_2
 + 21 Route_0_3 + 7 Route_0_4 + 9.89949493661 Route_0_5
 + 15.6524758425 Route_0_6 + 22.1359436212 Route_0_7 + 14 Route_0_8
 + 15.6524758425 Route_0_9 + 19.7989898732 Route_10_0
 + 15.6524758425 Route_10_1 + 7 Route_10_11 + 15.6524758425 Route_10_12
 + 9.89949493661 Route_10_13 + 7 Route_10_14 + 9.89949493661 Route_10_15
 + 14 Route_10_2 + 15.6524758425 Route_10_3 + 15.6524758425 Route_10_4
 + 9.89949493661 Route_10_5 + 7 Route_10_6 + 9.89949493661 Route_10_7
 + 14 Route_10_8 + 7 Route_10_9 + 25.2388589282 Route_11_0
 + 19.7989898732 Route_11_1 + 7 Route_11_10 + 22.1359436212 Route_11_12
 + 15.6524758425 Route_11_13 + 9.89949493661 Route_11_14 + 7 Route_11_15
 + 15.6524758425 Route_11_2 + 14 Route_11_3 + 22.1359436212 Route_11_4
 + 15.6524758425 Route_11_5 + 9.89949493661 Route_11_6 + 7 Route_11_7
 + 21 Route_11_8 + 14 Route_11_9 + 21 Route_12_0 + 22.1359436212 Route_12_1
 + 15.6524758425 Route_12_10 + 22.1359436212 Route_12_11 + 7 Route_12_13
 + 14 Route_12_14 + 21 Route_12_15 + 25.2388589282 Route_12_2
 + 29.6984848098 Route_12_3 + 14 Route_12_4 + 15.6524758425 Route_12_5
 + 19.7989898732 Route_12_6 + 25.2388589282 Route_12_7 + 7 Route_12_8
 + 9.89949493661 Route_12_9 + 22.1359436212 Route_13_0 + 21 Route_13_1
 + 9.89949493661 Route_13_10 + 15.6524758425 Route_13_11 + 7 Route_13_12
 + 7 Route_13_14 + 14 Route_13_15 + 22.1359436212 Route_13_2
 + 25.2388589282 Route_13_3 + 15.6524758425 Route_13_4 + 14 Route_13_5
 + 15.6524758425 Route_13_6 + 19.7989898732 Route_13_7
 + 9.89949493661 Route_13_8 + 7 Route_13_9 + 25.2388589282 Route_14_0
 + 22.1359436212 Route_14_1 + 7 Route_14_10 + 9.89949493661 Route_14_11
 + 14 Route_14_12 + 7 Route_14_13 + 7 Route_14_15 + 21 Route_14_2
 + 22.1359436212 Route_14_3 + 19.7989898732 Route_14_4
 + 15.6524758425 Route_14_5 + 14 Route_14_6 + 15.6524758425 Route_14_7
 + 15.6524758425 Route_14_8 + 9.89949493661 Route_14_9
 + 29.6984848098 Route_15_0 + 25.2388589282 Route_15_1
 + 9.89949493661 Route_15_10 + 7 Route_15_11 + 21 Route_15_12 + 14 Route_15_13
 + 7 Route_15_14 + 22.1359436212 Route_15_2 + 21 Route_15_3
 + 25.2388589282 Route_15_4 + 19.7989898732 Route_15_5
 + 15.6524758425 Route_15_6 + 14 Route_15_7 + 22.1359436212 Route_15_8
 + 15.6524758425 Route_15_9 + 7 Route_1_0 + 15.6524758425 Route_1_10
 + 19.7989898732 Route_1_11 + 22.1359436212 Route_1_12 + 21 Route_1_13
 + 22.1359436212 Route_1_14 + 25.2388589282 Route_1_15 + 7 Route_1_2
 + 14 Route_1_3 + 9.89949493661 Route_1_4 + 7 Route_1_5
 + 9.89949493661 Route_1_6 + 15.6524758425 Route_1_7 + 15.6524758425 Route_1_8
 + 14 Route_1_9 + 14 Route_2_0 + 7 Route_2_1 + 14 Route_2_10
 + 15.6524758425 Route_2_11 + 25.2388589282 Route_2_12
 + 22.1359436212 Route_2_13 + 21 Route_2_14 + 22.1359436212 Route_2_15
 + 7 Route_2_3 + 15.6524758425 Route_2_4 + 9.89949493661 Route_2_5
 + 7 Route_2_6 + 9.89949493661 Route_2_7 + 19.7989898732 Route_2_8
 + 15.6524758425 Route_2_9 + 21 Route_3_0 + 14 Route_3_1
 + 15.6524758425 Route_3_10 + 14 Route_3_11 + 29.6984848098 Route_3_12
 + 25.2388589282 Route_3_13 + 22.1359436212 Route_3_14 + 21 Route_3_15
 + 7 Route_3_2 + 22.1359436212 Route_3_4 + 15.6524758425 Route_3_5
 + 9.89949493661 Route_3_6 + 7 Route_3_7 + 25.2388589282 Route_3_8
 + 19.7989898732 Route_3_9 + 7 Route_4_0 + 9.89949493661 Route_4_1
 + 15.6524758425 Route_4_10 + 22.1359436212 Route_4_11 + 14 Route_4_12
 + 15.6524758425 Route_4_13 + 19.7989898732 Route_4_14
 + 25.2388589282 Route_4_15 + 15.6524758425 Route_4_2
 + 22.1359436212 Route_4_3 + 7 Route_4_5 + 14 Route_4_6 + 21 Route_4_7
 + 7 Route_4_8 + 9.89949493661 Route_4_9 + 9.89949493661 Route_5_0
 + 7 Route_5_1 + 9.89949493661 Route_5_10 + 15.6524758425 Route_5_11
 + 15.6524758425 Route_5_12 + 14 Route_5_13 + 15.6524758425 Route_5_14
 + 19.7989898732 Route_5_15 + 9.89949493661 Route_5_2
 + 15.6524758425 Route_5_3 + 7 Route_5_4 + 7 Route_5_6 + 14 Route_5_7
 + 9.89949493661 Route_5_8 + 7 Route_5_9 + 15.6524758425 Route_6_0
 + 9.89949493661 Route_6_1 + 7 Route_6_10 + 9.89949493661 Route_6_11
 + 19.7989898732 Route_6_12 + 15.6524758425 Route_6_13 + 14 Route_6_14
 + 15.6524758425 Route_6_15 + 7 Route_6_2 + 9.89949493661 Route_6_3
 + 14 Route_6_4 + 7 Route_6_5 + 7 Route_6_7 + 15.6524758425 Route_6_8
 + 9.89949493661 Route_6_9 + 22.1359436212 Route_7_0 + 15.6524758425 Route_7_1
 + 9.89949493661 Route_7_10 + 7 Route_7_11 + 25.2388589282 Route_7_12
 + 19.7989898732 Route_7_13 + 15.6524758425 Route_7_14 + 14 Route_7_15
 + 9.89949493661 Route_7_2 + 7 Route_7_3 + 21 Route_7_4 + 14 Route_7_5
 + 7 Route_7_6 + 22.1359436212 Route_7_8 + 15.6524758425 Route_7_9
 + 14 Route_8_0 + 15.6524758425 Route_8_1 + 14 Route_8_10 + 21 Route_8_11
 + 7 Route_8_12 + 9.89949493661 Route_8_13 + 15.6524758425 Route_8_14
 + 22.1359436212 Route_8_15 + 19.7989898732 Route_8_2
 + 25.2388589282 Route_8_3 + 7 Route_8_4 + 9.89949493661 Route_8_5
 + 15.6524758425 Route_8_6 + 22.1359436212 Route_8_7 + 7 Route_8_9
 + 15.6524758425 Route_9_0 + 14 Route_9_1 + 7 Route_9_10 + 14 Route_9_11
 + 9.89949493661 Route_9_12 + 7 Route_9_13 + 9.89949493661 Route_9_14
 + 15.6524758425 Route_9_15 + 15.6524758425 Route_9_2
 + 19.7989898732 Route_9_3 + 9.89949493661 Route_9_4 + 7 Route_9_5
 + 9.89949493661 Route_9_6 + 15.6524758425 Route_9_7 + 7 Route_9_8
Subject To
Sum_of_Products_into_Bar0: Route_0_0 + Route_10_0 + Route_11_0 + Route_12_0
 + Route_13_0 + Route_14_0 + Route_15_0 + Route_1_0 + Route_2_0 + Route_3_0
 + Route_4_0 + Route_5_0 + Route_6_0 + Route_7_0 + Route_8_0 + Route_9_0 >= 0
Sum_of_Products_into_Bar1: Route_0_1 + Route_10_1 + Route_11_1 + Route_12_1
 + Route_13_1 + Route_14_1 + Route_15_1 + Route_1_1 + Route_2_1 + Route_3_1
 + Route_4_1 + Route_5_1 + Route_6_1 + Route_7_1 + Route_8_1 + Route_9_1 >= 0
Sum_of_Products_into_Bar10: Route_0_10 + Route_10_10 + Route_11_10
 + Route_12_10 + Route_13_10 + Route_14_10 + Route_15_10 + Route_1_10
 + Route_2_10 + Route_3_10 + Route_4_10 + Route_5_10 + Route_6_10 + Route_7_10
 + Route_8_10 + Route_9_10 >= 4057
Sum_of_Products_into_Bar11: Route_0_11 + Route_10_11 + Route_11_11
 + Route_12_11 + Route_13_11 + Route_14_11 + Route_15_11 + Route_1_11
 + Route_2_11 + Route_3_11 + Route_4_11 + Route_5_11 + Route_6_11 + Route_7_11
 + Route_8_11 + Route_9_11 >= 0
Sum_of_Products_into_Bar12: Route_0_12 + Route_10_12 + Route_11_12
 + Route_12_12 + Route_13_12 + Route_14_12 + Route_15_12 + Route_1_12
 + Route_2_12 + Route_3_12 + Route_4_12 + Route_5_12 + Route_6_12 + Route_7_12
 + Route_8_12 + Route_9_12 >= 0
Sum_of_Products_into_Bar13: Route_0_13 + Route_10_13 + Route_11_13
 + Route_12_13 + Route_13_13 + Route_14_13 + Route_15_13 + Route_1_13
 + Route_2_13 + Route_3_13 + Route_4_13 + Route_5_13 + Route_6_13 + Route_7_13
 + Route_8_13 + Route_9_13 >= 3701
Sum_of_Products_into_Bar14: Route_0_14 + Route_10_14 + Route_11_14
 + Route_12_14 + Route_13_14 + Route_14_14 + Route_15_14 + Route_1_14
 + Route_2_14 + Route_3_14 + Route_4_14 + Route_5_14 + Route_6_14 + Route_7_14
 + Route_8_14 + Route_9_14 >= 591
Sum_of_Products_into_Bar15: Route_0_15 + Route_10_15 + Route_11_15
 + Route_12_15 + Route_13_15 + Route_14_15 + Route_15_15 + Route_1_15
 + Route_2_15 + Route_3_15 + Route_4_15 + Route_5_15 + Route_6_15 + Route_7_15
 + Route_8_15 + Route_9_15 >= 0
Sum_of_Products_into_Bar2: Route_0_2 + Route_10_2 + Route_11_2 + Route_12_2
 + Route_13_2 + Route_14_2 + Route_15_2 + Route_1_2 + Route_2_2 + Route_3_2
 + Route_4_2 + Route_5_2 + Route_6_2 + Route_7_2 + Route_8_2 + Route_9_2 >= 0
Sum_of_Products_into_Bar3: Route_0_3 + Route_10_3 + Route_11_3 + Route_12_3
 + Route_13_3 + Route_14_3 + Route_15_3 + Route_1_3 + Route_2_3 + Route_3_3
 + Route_4_3 + Route_5_3 + Route_6_3 + Route_7_3 + Route_8_3 + Route_9_3 >= 0
Sum_of_Products_into_Bar4: Route_0_4 + Route_10_4 + Route_11_4 + Route_12_4
 + Route_13_4 + Route_14_4 + Route_15_4 + Route_1_4 + Route_2_4 + Route_3_4
 + Route_4_4 + Route_5_4 + Route_6_4 + Route_7_4 + Route_8_4 + Route_9_4
 >= 373
Sum_of_Products_into_Bar5: Route_0_5 + Route_10_5 + Route_11_5 + Route_12_5
 + Route_13_5 + Route_14_5 + Route_15_5 + Route_1_5 + Route_2_5 + Route_3_5
 + Route_4_5 + Route_5_5 + Route_6_5 + Route_7_5 + Route_8_5 + Route_9_5
 >= 3510
Sum_of_Products_into_Bar6: Route_0_6 + Route_10_6 + Route_11_6 + Route_12_6
 + Route_13_6 + Route_14_6 + Route_15_6 + Route_1_6 + Route_2_6 + Route_3_6
 + Route_4_6 + Route_5_6 + Route_6_6 + Route_7_6 + Route_8_6 + Route_9_6
 >= 5681
Sum_of_Products_into_Bar7: Route_0_7 + Route_10_7 + Route_11_7 + Route_12_7
 + Route_13_7 + Route_14_7 + Route_15_7 + Route_1_7 + Route_2_7 + Route_3_7
 + Route_4_7 + Route_5_7 + Route_6_7 + Route_7_7 + Route_8_7 + Route_9_7
 >= 316
Sum_of_Products_into_Bar8: Route_0_8 + Route_10_8 + Route_11_8 + Route_12_8
 + Route_13_8 + Route_14_8 + Route_15_8 + Route_1_8 + Route_2_8 + Route_3_8
 + Route_4_8 + Route_5_8 + Route_6_8 + Route_7_8 + Route_8_8 + Route_9_8 >= 0
Sum_of_Products_into_Bar9: Route_0_9 + Route_10_9 + Route_11_9 + Route_12_9
 + Route_13_9 + Route_14_9 + Route_15_9 + Route_1_9 + Route_2_9 + Route_3_9
 + Route_4_9 + Route_5_9 + Route_6_9 + Route_7_9 + Route_8_9 + Route_9_9
 >= 225
Sum_of_Products_out_of_Warehouse_0: Route_0_0 + Route_0_1 + Route_0_10
 + Route_0_11 + Route_0_12 + Route_0_13 + Route_0_14 + Route_0_15 + Route_0_2
 + Route_0_3 + Route_0_4 + Route_0_5 + Route_0_6 + Route_0_7 + Route_0_8
 + Route_0_9 <= 0
Sum_of_Products_out_of_Warehouse_1: Route_1_0 + Route_1_1 + Route_1_10
 + Route_1_11 + Route_1_12 + Route_1_13 + Route_1_14 + Route_1_15 + Route_1_2
 + Route_1_3 + Route_1_4 + Route_1_5 + Route_1_6 + Route_1_7 + Route_1_8
 + Route_1_9 <= 0
Sum_of_Products_out_of_Warehouse_10: Route_10_0 + Route_10_1 + Route_10_10
 + Route_10_11 + Route_10_12 + Route_10_13 + Route_10_14 + Route_10_15
 + Route_10_2 + Route_10_3 + Route_10_4 + Route_10_5 + Route_10_6 + Route_10_7
 + Route_10_8 + Route_10_9 <= 2228
Sum_of_Products_out_of_Warehouse_11: Route_11_0 + Route_11_1 + Route_11_10
 + Route_11_11 + Route_11_12 + Route_11_13 + Route_11_14 + Route_11_15
 + Route_11_2 + Route_11_3 + Route_11_4 + Route_11_5 + Route_11_6 + Route_11_7
 + Route_11_8 + Route_11_9 <= 0
Sum_of_Products_out_of_Warehouse_12: Route_12_0 + Route_12_1 + Route_12_10
 + Route_12_11 + Route_12_12 + Route_12_13 + Route_12_14 + Route_12_15
 + Route_12_2 + Route_12_3 + Route_12_4 + Route_12_5 + Route_12_6 + Route_12_7
 + Route_12_8 + Route_12_9 <= 0
Sum_of_Products_out_of_Warehouse_13: Route_13_0 + Route_13_1 + Route_13_10
 + Route_13_11 + Route_13_12 + Route_13_13 + Route_13_14 + Route_13_15
 + Route_13_2 + Route_13_3 + Route_13_4 + Route_13_5 + Route_13_6 + Route_13_7
 + Route_13_8 + Route_13_9 <= 2111
Sum_of_Products_out_of_Warehouse_14: Route_14_0 + Route_14_1 + Route_14_10
 + Route_14_11 + Route_14_12 + Route_14_13 + Route_14_14 + Route_14_15
 + Route_14_2 + Route_14_3 + Route_14_4 + Route_14_5 + Route_14_6 + Route_14_7
 + Route_14_8 + Route_14_9 <= 0
Sum_of_Products_out_of_Warehouse_15: Route_15_0 + Route_15_1 + Route_15_10
 + Route_15_11 + Route_15_12 + Route_15_13 + Route_15_14 + Route_15_15
 + Route_15_2 + Route_15_3 + Route_15_4 + Route_15_5 + Route_15_6 + Route_15_7
 + Route_15_8 + Route_15_9 <= 0
Sum_of_Products_out_of_Warehouse_2: Route_2_0 + Route_2_1 + Route_2_10
 + Route_2_11 + Route_2_12 + Route_2_13 + Route_2_14 + Route_2_15 + Route_2_2
 + Route_2_3 + Route_2_4 + Route_2_5 + Route_2_6 + Route_2_7 + Route_2_8
 + Route_2_9 <= 1185
Sum_of_Products_out_of_Warehouse_3: Route_3_0 + Route_3_1 + Route_3_10
 + Route_3_11 + Route_3_12 + Route_3_13 + Route_3_14 + Route_3_15 + Route_3_2
 + Route_3_3 + Route_3_4 + Route_3_5 + Route_3_6 + Route_3_7 + Route_3_8
 + Route_3_9 <= 0
Sum_of_Products_out_of_Warehouse_4: Route_4_0 + Route_4_1 + Route_4_10
 + Route_4_11 + Route_4_12 + Route_4_13 + Route_4_14 + Route_4_15 + Route_4_2
 + Route_4_3 + Route_4_4 + Route_4_5 + Route_4_6 + Route_4_7 + Route_4_8
 + Route_4_9 <= 0
Sum_of_Products_out_of_Warehouse_5: Route_5_0 + Route_5_1 + Route_5_10
 + Route_5_11 + Route_5_12 + Route_5_13 + Route_5_14 + Route_5_15 + Route_5_2
 + Route_5_3 + Route_5_4 + Route_5_5 + Route_5_6 + Route_5_7 + Route_5_8
 + Route_5_9 <= 14
Sum_of_Products_out_of_Warehouse_6: Route_6_0 + Route_6_1 + Route_6_10
 + Route_6_11 + Route_6_12 + Route_6_13 + Route_6_14 + Route_6_15 + Route_6_2
 + Route_6_3 + Route_6_4 + Route_6_5 + Route_6_6 + Route_6_7 + Route_6_8
 + Route_6_9 <= 4992
Sum_of_Products_out_of_Warehouse_7: Route_7_0 + Route_7_1 + Route_7_10
 + Route_7_11 + Route_7_12 + Route_7_13 + Route_7_14 + Route_7_15 + Route_7_2
 + Route_7_3 + Route_7_4 + Route_7_5 + Route_7_6 + Route_7_7 + Route_7_8
 + Route_7_9 <= 0
Sum_of_Products_out_of_Warehouse_8: Route_8_0 + Route_8_1 + Route_8_10
 + Route_8_11 + Route_8_12 + Route_8_13 + Route_8_14 + Route_8_15 + Route_8_2
 + Route_8_3 + Route_8_4 + Route_8_5 + Route_8_6 + Route_8_7 + Route_8_8
 + Route_8_9 <= 0
Sum_of_Products_out_of_Warehouse_9: Route_9_0 + Route_9_1 + Route_9_10
 + Route_9_11 + Route_9_12 + Route_9_13 + Route_9_14 + Route_9_15 + Route_9_2
 + Route_9_3 + Route_9_4 + Route_9_5 + Route_9_6 + Route_9_7 + Route_9_8
 + Route_9_9 <= 2313
Bounds
0 <= Route_0_0
0 <= Route_0_1
0 <= Route_0_10
0 <= Route_0_11
0 <= Route_0_12
0 <= Route_0_13
0 <= Route_0_14
0 <= Route_0_15
0 <= Route_0_2
0 <= Route_0_3
0 <= Route_0_4
0 <= Route_0_5
0 <= Route_0_6
0 <= Route_0_7
0 <= Route_0_8
0 <= Route_0_9
0 <= Route_10_0
0 <= Route_10_1
0 <= Route_10_10
0 <= Route_10_11
0 <= Route_10_12
0 <= Route_10_13
0 <= Route_10_14
0 <= Route_10_15
0 <= Route_10_2
0 <= Route_10_3
0 <= Route_10_4
0 <= Route_10_5
0 <= Route_10_6
0 <= Route_10_7
0 <= Route_10_8
0 <= Route_10_9
0 <= Route_11_0
0 <= Route_11_1
0 <= Route_11_10
0 <= Route_11_11
0 <= Route_11_12
0 <= Route_11_13
0 <= Route_11_14
0 <= Route_11_15
0 <= Route_11_2
0 <= Route_11_3
0 <= Route_11_4
0 <= Route_11_5
0 <= Route_11_6
0 <= Route_11_7
0 <= Route_11_8
0 <= Route_11_9
0 <= Route_12_0
0 <= Route_12_1
0 <= Route_12_10
0 <= Route_12_11
0 <= Route_12_12
0 <= Route_12_13
0 <= Route_12_14
0 <= Route_12_15
0 <= Route_12_2
0 <= Route_12_3
0 <= Route_12_4
0 <= Route_12_5
0 <= Route_12_6
0 <= Route_12_7
0 <= Route_12_8
0 <= Route_12_9
0 <= Route_13_0
0 <= Route_13_1
0 <= Route_13_10
0 <= Route_13_11
0 <= Route_13_12
0 <= Route_13_13
0 <= Route_13_14
0 <= Route_13_15
0 <= Route_13_2
0 <= Route_13_3
0 <= Route_13_4
0 <= Route_13_5
0 <= Route_13_6
0 <= Route_13_7
0 <= Route_13_8
0 <= Route_13_9
0 <= Route_14_0
0 <= Route_14_1
0 <= Route_14_10
0 <= Route_14_11
0 <= Route_14_12
0 <= Route_14_13
0 <= Route_14_14
0 <= Route_14_15
0 <= Route_14_2
0 <= Route_14_3
0 <= Route_14_4
0 <= Route_14_5
0 <= Route_14_6
0 <= Route_14_7
0 <= Route_14_8
0 <= Route_14_9
0 <= Route_15_0
0 <= Route_15_1
0 <= Route_15_10
0 <= Route_15_11
0 <= Route_15_12
0 <= Route_15_13
0 <= Route_15_14
0 <= Route_15_15
0 <= Route_15_2
0 <= Route_15_3
0 <= Route_15_4
0 <= Route_15_5
0 <= Route_15_6
0 <= Route_15_7
0 <= Route_15_8
0 <= Route_15_9
0 <= Route_1_0
0 <= Route_1_1
0 <= Route_1_10
0 <= Route_1_11
0 <= Route_1_12
0 <= Route_1_13
0 <= Route_1_14
0 <= Route_1_15
0 <= Route_1_2
0 <= Route_1_3
0 <= Route_1_4
0 <= Route_1_5
0 <= Route_1_6
0 <= Route_1_7
0 <= Route_1_8
0 <= Route_1_9
0 <= Route_2_0
0 <= Route_2_1
0 <= Route_2_10
0 <= Route_2_11
0 <= Route_2_12
0 <= Route_2_13
0 <= Route_2_14
0 <= Route_2_15
0 <= Route_2_2
0 <= Route_2_3
0 <= Route_2_4
0 <= Route_2_5
0 <= Route_2_6
0 <= Route_2_7
0 <= Route_2_8
0 <= Route_2_9
0 <= Route_3_0
0 <= Route_3_1
0 <= Route_3_10
0 <= Route_3_11
0 <= Route_3_12
0 <= Route_3_13
0 <= Route_3_14
0 <= Route_3_15
0 <= Route_3_2
0 <= Route_3_3
0 <= Route_3_4
0 <= Route_3_5
0 <= Route_3_6
0 <= Route_3_7
0 <= Route_3_8
0 <= Route_3_9
0 <= Route_4_0
0 <= Route_4_1
0 <= Route_4_10
0 <= Route_4_11
0 <= Route_4_12
0 <= Route_4_13
0 <= Route_4_14
0 <= Route_4_15
0 <= Route_4_2
0 <= Route_4_3
0 <= Route_4_4
0 <= Route_4_5
0 <= Route_4_6
0 <= Route_4_7
0 <= Route_4_8
0 <= Route_4_9
0 <= Route_5_0
0 <= Route_5_1
0 <= Route_5_10
0 <= Route_5_11
0 <= Route_5_12
0 <= Route_5_13
0 <= Route_5_14
0 <= Route_5_15
0 <= Route_5_2
0 <= Route_5_3
0 <= Route_5_4
0 <= Route_5_5
0 <= Route_5_6
0 <= Route_5_7
0 <= Route_5_8
0 <= Route_5_9
0 <= Route_6_0
0 <= Route_6_1
0 <= Route_6_10
0 <= Route_6_11
0 <= Route_6_12
0 <= Route_6_13
0 <= Route_6_14
0 <= Route_6_15
0 <= Route_6_2
0 <= Route_6_3
0 <= Route_6_4
0 <= Route_6_5
0 <= Route_6_6
0 <= Route_6_7
0 <= Route_6_8
0 <= Route_6_9
0 <= Route_7_0
0 <= Route_7_1
0 <= Route_7_10
0 <= Route_7_11
0 <= Route_7_12
0 <= Route_7_13
0 <= Route_7_14
0 <= Route_7_15
0 <= Route_7_2
0 <= Route_7_3
0 <= Route_7_4
0 <= Route_7_5
0 <= Route_7_6
0 <= Route_7_7
0 <= Route_7_8
0 <= Route_7_9
0 <= Route_8_0
0 <= Route_8_1
0 <= Route_8_10
0 <= Route_8_11
0 <= Route_8_12
0 <= Route_8_13
0 <= Route_8_14
0 <= Route_8_15
0 <= Route_8_2
0 <= Route_8_3
0 <= Route_8_4
0 <= Route_8_5
0 <= Route_8_6
0 <= Route_8_7
0 <= Route_8_8
0 <= Route_8_9
0 <= Route_9_0
0 <= Route_9_1
0 <= Route_9_10
0 <= Route_9_11
0 <= Route_9_12
0 <= Route_9_13
0 <= Route_9_14
0 <= Route_9_15
0 <= Route_9_2
0 <= Route_9_3
0 <= Route_9_4
0 <= Route_9_5
0 <= Route_9_6
0 <= Route_9_7
0 <= Route_9_8
0 <= Route_9_9
Generals
Route_0_0
Route_0_1
Route_0_10
Route_0_11
Route_0_12
Route_0_13
Route_0_14
Route_0_15
Route_0_2
Route_0_3
Route_0_4
Route_0_5
Route_0_6
Route_0_7
Route_0_8
Route_0_9
Route_10_0
Route_10_1
Route_10_10
Route_10_11
Route_10_12
Route_10_13
Route_10_14
Route_10_15
Route_10_2
Route_10_3
Route_10_4
Route_10_5
Route_10_6
Route_10_7
Route_10_8
Route_10_9
Route_11_0
Route_11_1
Route_11_10
Route_11_11
Route_11_12
Route_11_13
Route_11_14
Route_11_15
Route_11_2
Route_11_3
Route_11_4
Route_11_5
Route_11_6
Route_11_7
Route_11_8
Route_11_9
Route_12_0
Route_12_1
Route_12_10
Route_12_11
Route_12_12
Route_12_13
Route_12_14
Route_12_15
Route_12_2
Route_12_3
Route_12_4
Route_12_5
Route_12_6
Route_12_7
Route_12_8
Route_12_9
Route_13_0
Route_13_1
Route_13_10
Route_13_11
Route_13_12
Route_13_13
Route_13_14
Route_13_15
Route_13_2
Route_13_3
Route_13_4
Route_13_5
Route_13_6
Route_13_7
Route_13_8
Route_13_9
Route_14_0
Route_14_1
Route_14_10
Route_14_11
Route_14_12
Route_14_13
Route_14_14
Route_14_15
Route_14_2
Route_14_3
Route_14_4
Route_14_5
Route_14_6
Route_14_7
Route_14_8
Route_14_9
Route_15_0
Route_15_1
Route_15_10
Route_15_11
Route_15_12
Route_15_13
Route_15_14
Route_15_15
Route_15_2
Route_15_3
Route_15_4
Route_15_5
Route_15_6
Route_15_7
Route_15_8
Route_15_9
Route_1_0
Route_1_1
Route_1_10
Route_1_11
Route_1_12
Route_1_13
Route_1_14
Route_1_15
Route_1_2
Route_1_3
Route_1_4
Route_1_5
Route_1_6
Route_1_7
Route_1_8
Route_1_9
Route_2_0
Route_2_1
Route_2_10
Route_2_11
Route_2_12
Route_2_13
Route_2_14
Route_2_15
Route_2_2
Route_2_3
Route_2_4
Route_2_5
Route_2_6
Route_2_7
Route_2_8
Route_2_9
Route_3_0
Route_3_1
Route_3_10
Route_3_11
Route_3_12
Route_3_13
Route_3_14
Route_3_15
Route_3_2
Route_3_3
Route_3_4
Route_3_5
Route_3_6
Route_3_7
Route_3_8
Route_3_9
Route_4_0
Route_4_1
Route_4_10
Route_4_11
Route_4_12
Route_4_13
Route_4_14
Route_4_15
Route_4_2
Route_4_3
Route_4_4
Route_4_5
Route_4_6
Route_4_7
Route_4_8
Route_4_9
Route_5_0
Route_5_1
Route_5_10
Route_5_11
Route_5_12
Route_5_13
Route_5_14
Route_5_15
Route_5_2
Route_5_3
Route_5_4
Route_5_5
Route_5_6
Route_5_7
Route_5_8
Route_5_9
Route_6_0
Route_6_1
Route_6_10
Route_6_11
Route_6_12
Route_6_13
Route_6_14
Route_6_15
Route_6_2
Route_6_3
Route_6_4
Route_6_5
Route_6_6
Route_6_7
Route_6_8
Route_6_9
Route_7_0
Route_7_1
Route_7_10
Route_7_11
Route_7_12
Route_7_13
Route_7_14
Route_7_15
Route_7_2
Route_7_3
Route_7_4
Route_7_5
Route_7_6
Route_7_7
Route_7_8
Route_7_9
Route_8_0
Route_8_1
Route_8_10
Route_8_11
Route_8_12
Route_8_13
Route_8_14
Route_8_15
Route_8_2
Route_8_3
Route_8_4
Route_8_5
Route_8_6
Route_8_7
Route_8_8
Route_8_9
Route_9_0
Route_9_1
Route_9_10
Route_9_11
Route_9_12
Route_9_13
Route_9_14
Route_9_15
Route_9_2
Route_9_3
Route_9_4
Route_9_5
Route_9_6
Route_9_7
Route_9_8
Route_9_9
End
